id: 1047
name: dc1l
group: miplib2010
method: 1

Gurobi 7.0.2 (linux64, Matlab) logging started Thu Apr 19 16:11:42 2018


Gurobi 7.0.2 (linux64) logging started Thu Apr 19 16:11:42 2018

Optimize a model with 1653 rows, 37297 columns and 448754 nonzeros
Coefficient statistics:
  Matrix range     [1e+00, 1e+02]
  Objective range  [1e+02, 1e+07]
  Bounds range     [1e+00, 1e+00]
  RHS range        [1e+00, 2e+03]
Presolve removed 3 rows and 1801 columns
Presolve time: 0.10s
Presolved: 1650 rows, 35496 columns, 424338 nonzeros

Iteration    Objective       Primal Inf.    Dual Inf.      Time
       0    2.0049760e+04   1.640000e+03   0.000000e+00      0s
   14561    1.7431767e+06   2.005044e+02   0.000000e+00      5s
   16024    1.7445917e+06   0.000000e+00   0.000000e+00      6s

Solved in 16024 iterations and 5.94 seconds
Optimal objective  1.744591693e+06
status: OPTIMAL
